data/solutions/recovery/degenerate/moderate/flexible/degenerate_moderate_instance1/65.sol
Elapsed time: 0.1
Upper bound: 237221.0
Planning weighted value: 1731024.0
C[0]=237221.0
C[1]=236990.0
C[2]=236925.0
y[0]=2
y[1]=0
y[2]=2
y[3]=0
y[4]=2
y[5]=2
y[6]=1
y[7]=1
y[8]=0
y[9]=1
y[10]=1
y[11]=2
y[12]=0
y[13]=0
y[14]=0
y[15]=2
y[16]=2
y[17]=0
y[18]=2
y[19]=2
y[20]=1
y[21]=0
