data/solutions/recovery/degenerate/moderate/flexible/degenerate_moderate_instance1/65.log

Log started (V12.6.3.0) Sat Apr 21 11:02:04 2018

New value for default parallel thread count: 1

Problem '/tmp/tmpr1Upgp.pyomo.lp' read.
Read time = 0.00 sec. (0.02 ticks)

Problem name         : /tmp/tmpr1Upgp.pyomo.lp
Objective sense      : Minimize
Variables            :      71  [Nneg: 1,  Binary: 66,  General Integer: 4]
Objective nonzeros   :       1
Linear constraints   :      51  [Less: 25,  Equal: 26]
  Nonzeros           :    1019
  RHS nonzeros       :      45

Variables            : Min LB: 0.000000         Max UB: 1.000000       
Objective nonzeros   : Min   : 1.000000         Max   : 1.000000       
Linear constraints   :
  Nonzeros           : Min   : 1.000000         Max   : 93707.00       
  RHS nonzeros       : Min   : 1.000000         Max   : 3.000000       
Tried aggregator 2 times.
MIP Presolve eliminated 22 rows and 3 columns.
Aggregator did 4 substitutions.
Reduced MIP has 25 rows, 64 columns, and 167 nonzeros.
Reduced MIP has 63 binaries, 1 generals, 0 SOSs, and 0 indicators.
Presolve time = 0.00 sec. (0.42 ticks)
Found incumbent of value 711136.000000 after 0.00 sec. (0.63 ticks)
Probing time = 0.00 sec. (0.04 ticks)
Cover probing fixed 0 vars, tightened 6 bounds.
Tried aggregator 1 time.
Reduced MIP has 25 rows, 64 columns, and 167 nonzeros.
Reduced MIP has 63 binaries, 1 generals, 0 SOSs, and 0 indicators.
Presolve time = 0.00 sec. (0.10 ticks)
Probing time = 0.00 sec. (0.03 ticks)
Clique table members: 21.
MIP emphasis: balance optimality and feasibility.
MIP search method: dynamic search.
Parallel mode: none, using 1 thread.
Root relaxation solution time = 0.00 sec. (0.05 ticks)

        Nodes                                         Cuts/
   Node  Left     Objective  IInf  Best Integer    Best Bound    ItCnt     Gap

*     0+    0                       711136.0000    93707.0000            86.82%
      0     0   237045.3333     4   711136.0000   237045.3333        3   66.67%
*     0+    0                       263841.0000   237045.3333            10.16%
      0     0   237046.0000     6   263841.0000      Fract: 3       10   10.16%
*     0+    0                       251518.0000   237046.0000             5.75%
      0     0   237046.0000     8   251518.0000       Cuts: 7       25    5.75%
*     0+    0                       250104.0000   237046.0000             5.22%
*     0+    0                       241509.0000   237046.0000             1.85%
      0     2   237046.0000     8   241509.0000   237046.0000       25    1.85%
Elapsed time = 0.01 sec. (2.20 ticks, tree = 0.01 MB, solutions = 4)
*    45     6      integral     0   240142.0000   237046.0000      222    1.29%
*    58     5      integral     0   238257.0000   237046.0000      274    0.51%
*   139    29      integral     0   238130.0000   237046.0000      587    0.46%
*   287    28      integral     0   237345.0000   237046.0000     1226    0.13%
*   378    22      integral     0   237314.0000   237046.0000     1610    0.11%
*   697    55      integral     0   237221.0000   237046.0000     3184    0.07%

Cover cuts applied:  49
Mixed integer rounding cuts applied:  2
Gomory fractional cuts applied:  1

Root node processing (before b&c):
  Real time             =    0.01 sec. (2.19 ticks)
Sequential b&c:
  Real time             =    0.06 sec. (50.14 ticks)
                          ------------
Total (root+branch&cut) =    0.07 sec. (52.33 ticks)

Solution pool: 10 solutions saved.

MIP - Integer optimal solution:  Objective =  2.3722100000e+05
Solution time =    0.07 sec.  Iterations = 5000  Nodes = 1064
Deterministic time = 52.34 ticks  (780.24 ticks/sec)


Incumbent solution written to file '/tmp/tmpb9i7gL.cplex.sol'.
